c From Christian L. -> jean
c Chromatic number = 10
p edge 80 508
e 1 21
e 1 33
e 1 43
e 1 44
e 1 54
e 1 65
e 2 22
e 2 32
e 2 42
e 2 45
e 2 55
e 2 66
e 3 23
e 3 31
e 3 41
e 3 46
e 3 56
e 3 67
e 4 24
e 4 34
e 4 47
e 4 57
e 4 68
e 5 25
e 5 35
e 5 48
e 5 58
e 5 69
e 6 26
e 6 36
e 6 49
e 6 59
e 6 70
e 7 27
e 7 37
e 7 50
e 7 60
e 7 71
e 8 28
e 8 38
e 8 51
e 8 61
e 8 72
e 9 29
e 9 39
e 9 52
e 9 62
e 9 73
e 10 30
e 10 40
e 10 53
e 10 63
e 10 74
e 11 12
e 11 13
e 11 14
e 11 15
e 11 16
e 11 17
e 11 18
e 11 19
e 11 20
e 11 75
e 12 13
e 12 14
e 12 15
e 12 16
e 12 17
e 12 18
e 12 19
e 12 20
e 12 76
e 13 14
e 13 15
e 13 16
e 13 17
e 13 18
e 13 19
e 13 20
e 13 77
e 14 15
e 14 16
e 14 17
e 14 18
e 14 19
e 14 20
e 14 78
e 15 16
e 15 17
e 15 18
e 15 19
e 15 20
e 15 79
e 16 17
e 16 18
e 16 19
e 16 20
e 16 80
e 17 18
e 17 19
e 17 20
e 18 19
e 18 20
e 19 20
e 21 22
e 21 23
e 21 24
e 21 25
e 21 26
e 21 27
e 21 28
e 21 29
e 21 30
e 21 75
e 21 76
e 21 77
e 21 78
e 21 79
e 21 80
e 22 23
e 22 24
e 22 25
e 22 26
e 22 27
e 22 28
e 22 29
e 22 30
e 22 75
e 22 76
e 22 77
e 22 78
e 22 79
e 22 80
e 23 24
e 23 25
e 23 26
e 23 27
e 23 28
e 23 29
e 23 30
e 23 75
e 23 76
e 23 77
e 23 78
e 23 79
e 23 80
e 24 25
e 24 26
e 24 27
e 24 28
e 24 29
e 24 30
e 24 75
e 24 76
e 24 77
e 24 78
e 24 79
e 24 80
e 25 26
e 25 27
e 25 28
e 25 29
e 25 30
e 25 75
e 25 76
e 25 77
e 25 78
e 25 79
e 25 80
e 26 27
e 26 28
e 26 29
e 26 30
e 26 75
e 26 76
e 26 77
e 26 78
e 26 79
e 26 80
e 27 28
e 27 29
e 27 30
e 27 75
e 27 76
e 27 77
e 27 78
e 27 79
e 27 80
e 28 29
e 28 30
e 28 75
e 28 76
e 28 77
e 28 78
e 28 79
e 28 80
e 29 30
e 29 75
e 29 76
e 29 77
e 29 78
e 29 79
e 29 80
e 30 75
e 30 76
e 30 77
e 30 78
e 30 79
e 30 80
e 31 32
e 31 33
e 31 34
e 31 35
e 31 36
e 31 37
e 31 38
e 31 39
e 31 40
e 32 33
e 32 34
e 32 35
e 32 36
e 32 37
e 32 38
e 32 39
e 32 40
e 33 34
e 33 35
e 33 36
e 33 37
e 33 38
e 33 39
e 33 40
e 34 35
e 34 36
e 34 37
e 34 38
e 34 39
e 34 40
e 35 36
e 35 37
e 35 38
e 35 39
e 35 40
e 36 37
e 36 38
e 36 39
e 36 40
e 37 38
e 37 39
e 37 40
e 38 39
e 38 40
e 39 40
e 41 42
e 41 43
e 41 44
e 41 45
e 41 75
e 41 76
e 41 77
e 42 43
e 42 44
e 42 45
e 42 75
e 42 76
e 42 77
e 43 44
e 43 45
e 43 75
e 43 76
e 43 77
e 44 45
e 44 75
e 44 76
e 44 77
e 45 75
e 45 76
e 45 77
e 46 47
e 46 48
e 46 49
e 46 50
e 46 78
e 46 79
e 46 80
e 47 48
e 47 49
e 47 50
e 47 78
e 47 79
e 47 80
e 48 49
e 48 50
e 48 78
e 48 79
e 48 80
e 49 50
e 49 78
e 49 79
e 49 80
e 50 78
e 50 79
e 50 80
e 51 52
e 51 53
e 51 54
e 51 55
e 52 53
e 52 54
e 52 55
e 53 54
e 53 55
e 54 55
e 56 57
e 56 58
e 56 59
e 56 60
e 57 58
e 57 59
e 57 60
e 58 59
e 58 60
e 59 60
e 61 62
e 61 63
e 61 64
e 61 65
e 62 63
e 62 64
e 62 65
e 63 64
e 63 65
e 64 65
e 66 67
e 66 68
e 66 69
e 66 70
e 67 68
e 67 69
e 67 70
e 68 69
e 68 70
e 69 70
e 71 72
e 71 73
e 71 74
e 72 73
e 72 74
e 73 74
